p cnf 141 475
c p weight -55 1 0
c p weight 55 -1 0
c p weight 59 6.12323399573676603586882014729198302312846062338790031898128063403419218957424163818359375E-17 0
c p weight -59 1 0
c p weight 60 1 0
c p weight -60 1 0
c p weight -57 1 0
c p weight 57 -1 0
c p weight -61 1 0
c p weight 61 -1 0
c p weight -63 1 0
c p weight 63 -1 0
c p weight -66 1 0
c p weight 66 -1 0
c p weight -69 1 0
c p weight 69 -1 0
c p weight -72 1 0
c p weight 72 -1 0
c p weight -75 1 0
c p weight 75 -1 0
c p weight -78 1 0
c p weight 78 -1 0
c p weight -81 1 0
c p weight 81 -1 0
c p weight -84 1 0
c p weight 84 -1 0
c p weight -87 1 0
c p weight 87 -1 0
c p weight -90 1 0
c p weight 90 -1 0
c p weight -93 1 0
c p weight 93 -1 0
c p weight -96 1 0
c p weight 96 -1 0
c p weight -99 1 0
c p weight 99 -1 0
c p weight -102 1 0
c p weight 102 -1 0
c p weight -105 1 0
c p weight 105 -1 0
c p weight -108 1 0
c p weight 108 -1 0
c p weight -111 1 0
c p weight 111 -1 0
c p weight -114 1 0
c p weight 114 -1 0
c p weight -117 1 0
c p weight 117 -1 0
c p weight -120 1 0
c p weight 120 -1 0
c p weight -123 1 0
c p weight 123 -1 0
c p weight -126 1 0
c p weight 126 -1 0
c p weight -129 1 0
c p weight 129 -1 0
c p weight -132 1 0
c p weight 132 -1 0
c p weight -135 1 0
c p weight 135 -1 0
c p weight -138 1 0
c p weight 138 -1 0
c p weight 141 0.5 0
c p weight -141 1 0
141 0
-53 0
-51 0
-49 0
-47 0
-45 0
-43 0
-41 0
-39 0
-37 0
-35 0
-33 0
-31 0
-29 0
-27 0
-25 0
-23 0
-21 0
-19 0
-17 0
-15 0
-13 0
-11 0
-9 0
-7 0
-5 0
-3 0
-1 0
-55 53 0
-55 54 0
55 -53 -54 0
56 53 -54 0
56 -53 54 0
-56 53 54 0
-56 -53 -54 0
-57 58 0
-57 56 0
-57 -53 0
57 -58 53 -56 0
58 -53 56 0
-58 53 56 0
-59 56 0
58 -59 -53 0
-58 -59 53 0
58 59 53 -56 0
-58 59 -53 -56 0
-60 56 0
58 -60 53 0
-58 -60 -53 0
58 60 -53 -56 0
-58 60 53 -56 0
-61 58 0
-61 56 0
61 -58 -56 0
62 58 -56 0
62 -58 56 0
-62 58 56 0
-62 -58 -56 0
-63 58 0
-63 52 0
-63 51 -62 0
-63 -51 62 0
63 -58 51 62 -52 0
63 -58 -51 -62 -52 0
65 58 -51 0
65 -58 51 0
-65 58 51 0
-65 -58 -51 0
64 62 -52 0
64 -62 52 0
-64 62 52 0
-64 -62 -52 0
-66 65 0
-66 50 0
-66 49 -52 0
-66 -49 52 0
66 -65 49 52 -50 0
66 -65 -49 -52 -50 0
68 65 -49 0
68 -65 49 0
-68 65 49 0
-68 -65 -49 0
67 52 -50 0
67 -52 50 0
-67 52 50 0
-67 -52 -50 0
-69 68 0
-69 48 0
-69 47 -50 0
-69 -47 50 0
69 -68 47 50 -48 0
69 -68 -47 -50 -48 0
71 68 -47 0
71 -68 47 0
-71 68 47 0
-71 -68 -47 0
70 50 -48 0
70 -50 48 0
-70 50 48 0
-70 -50 -48 0
-72 71 0
-72 46 0
-72 45 -48 0
-72 -45 48 0
72 -71 45 48 -46 0
72 -71 -45 -48 -46 0
74 71 -45 0
74 -71 45 0
-74 71 45 0
-74 -71 -45 0
73 48 -46 0
73 -48 46 0
-73 48 46 0
-73 -48 -46 0
-75 74 0
-75 44 0
-75 43 -46 0
-75 -43 46 0
75 -74 43 46 -44 0
75 -74 -43 -46 -44 0
77 74 -43 0
77 -74 43 0
-77 74 43 0
-77 -74 -43 0
76 46 -44 0
76 -46 44 0
-76 46 44 0
-76 -46 -44 0
-78 77 0
-78 42 0
-78 41 -44 0
-78 -41 44 0
78 -77 41 44 -42 0
78 -77 -41 -44 -42 0
80 77 -41 0
80 -77 41 0
-80 77 41 0
-80 -77 -41 0
79 44 -42 0
79 -44 42 0
-79 44 42 0
-79 -44 -42 0
-81 80 0
-81 40 0
-81 39 -42 0
-81 -39 42 0
81 -80 39 42 -40 0
81 -80 -39 -42 -40 0
83 80 -39 0
83 -80 39 0
-83 80 39 0
-83 -80 -39 0
82 42 -40 0
82 -42 40 0
-82 42 40 0
-82 -42 -40 0
-84 83 0
-84 38 0
-84 37 -40 0
-84 -37 40 0
84 -83 37 40 -38 0
84 -83 -37 -40 -38 0
86 83 -37 0
86 -83 37 0
-86 83 37 0
-86 -83 -37 0
85 40 -38 0
85 -40 38 0
-85 40 38 0
-85 -40 -38 0
-87 86 0
-87 36 0
-87 35 -38 0
-87 -35 38 0
87 -86 35 38 -36 0
87 -86 -35 -38 -36 0
89 86 -35 0
89 -86 35 0
-89 86 35 0
-89 -86 -35 0
88 38 -36 0
88 -38 36 0
-88 38 36 0
-88 -38 -36 0
-90 89 0
-90 34 0
-90 33 -36 0
-90 -33 36 0
90 -89 33 36 -34 0
90 -89 -33 -36 -34 0
92 89 -33 0
92 -89 33 0
-92 89 33 0
-92 -89 -33 0
91 36 -34 0
91 -36 34 0
-91 36 34 0
-91 -36 -34 0
-93 92 0
-93 32 0
-93 31 -34 0
-93 -31 34 0
93 -92 31 34 -32 0
93 -92 -31 -34 -32 0
95 92 -31 0
95 -92 31 0
-95 92 31 0
-95 -92 -31 0
94 34 -32 0
94 -34 32 0
-94 34 32 0
-94 -34 -32 0
-96 95 0
-96 30 0
-96 29 -32 0
-96 -29 32 0
96 -95 29 32 -30 0
96 -95 -29 -32 -30 0
98 95 -29 0
98 -95 29 0
-98 95 29 0
-98 -95 -29 0
97 32 -30 0
97 -32 30 0
-97 32 30 0
-97 -32 -30 0
-99 98 0
-99 28 0
-99 27 -30 0
-99 -27 30 0
99 -98 27 30 -28 0
99 -98 -27 -30 -28 0
101 98 -27 0
101 -98 27 0
-101 98 27 0
-101 -98 -27 0
100 30 -28 0
100 -30 28 0
-100 30 28 0
-100 -30 -28 0
-102 101 0
-102 26 0
-102 25 -28 0
-102 -25 28 0
102 -101 25 28 -26 0
102 -101 -25 -28 -26 0
104 101 -25 0
104 -101 25 0
-104 101 25 0
-104 -101 -25 0
103 28 -26 0
103 -28 26 0
-103 28 26 0
-103 -28 -26 0
-105 104 0
-105 24 0
-105 23 -26 0
-105 -23 26 0
105 -104 23 26 -24 0
105 -104 -23 -26 -24 0
107 104 -23 0
107 -104 23 0
-107 104 23 0
-107 -104 -23 0
106 26 -24 0
106 -26 24 0
-106 26 24 0
-106 -26 -24 0
-108 107 0
-108 22 0
-108 21 -24 0
-108 -21 24 0
108 -107 21 24 -22 0
108 -107 -21 -24 -22 0
110 107 -21 0
110 -107 21 0
-110 107 21 0
-110 -107 -21 0
109 24 -22 0
109 -24 22 0
-109 24 22 0
-109 -24 -22 0
-111 110 0
-111 20 0
-111 19 -22 0
-111 -19 22 0
111 -110 19 22 -20 0
111 -110 -19 -22 -20 0
113 110 -19 0
113 -110 19 0
-113 110 19 0
-113 -110 -19 0
112 22 -20 0
112 -22 20 0
-112 22 20 0
-112 -22 -20 0
-114 113 0
-114 18 0
-114 17 -20 0
-114 -17 20 0
114 -113 17 20 -18 0
114 -113 -17 -20 -18 0
116 113 -17 0
116 -113 17 0
-116 113 17 0
-116 -113 -17 0
115 20 -18 0
115 -20 18 0
-115 20 18 0
-115 -20 -18 0
-117 116 0
-117 16 0
-117 15 -18 0
-117 -15 18 0
117 -116 15 18 -16 0
117 -116 -15 -18 -16 0
119 116 -15 0
119 -116 15 0
-119 116 15 0
-119 -116 -15 0
118 18 -16 0
118 -18 16 0
-118 18 16 0
-118 -18 -16 0
-120 119 0
-120 14 0
-120 13 -16 0
-120 -13 16 0
120 -119 13 16 -14 0
120 -119 -13 -16 -14 0
122 119 -13 0
122 -119 13 0
-122 119 13 0
-122 -119 -13 0
121 16 -14 0
121 -16 14 0
-121 16 14 0
-121 -16 -14 0
-123 122 0
-123 12 0
-123 11 -14 0
-123 -11 14 0
123 -122 11 14 -12 0
123 -122 -11 -14 -12 0
125 122 -11 0
125 -122 11 0
-125 122 11 0
-125 -122 -11 0
124 14 -12 0
124 -14 12 0
-124 14 12 0
-124 -14 -12 0
-126 125 0
-126 10 0
-126 9 -12 0
-126 -9 12 0
126 -125 9 12 -10 0
126 -125 -9 -12 -10 0
128 125 -9 0
128 -125 9 0
-128 125 9 0
-128 -125 -9 0
127 12 -10 0
127 -12 10 0
-127 12 10 0
-127 -12 -10 0
-129 128 0
-129 8 0
-129 7 -10 0
-129 -7 10 0
129 -128 7 10 -8 0
129 -128 -7 -10 -8 0
131 128 -7 0
131 -128 7 0
-131 128 7 0
-131 -128 -7 0
130 10 -8 0
130 -10 8 0
-130 10 8 0
-130 -10 -8 0
-132 131 0
-132 6 0
-132 5 -8 0
-132 -5 8 0
132 -131 5 8 -6 0
132 -131 -5 -8 -6 0
134 131 -5 0
134 -131 5 0
-134 131 5 0
-134 -131 -5 0
133 8 -6 0
133 -8 6 0
-133 8 6 0
-133 -8 -6 0
-135 134 0
-135 4 0
-135 3 -6 0
-135 -3 6 0
135 -134 3 6 -4 0
135 -134 -3 -6 -4 0
137 134 -3 0
137 -134 3 0
-137 134 3 0
-137 -134 -3 0
136 6 -4 0
136 -6 4 0
-136 6 4 0
-136 -6 -4 0
-138 137 0
-138 2 0
-138 1 -4 0
-138 -1 4 0
138 -137 1 4 -2 0
138 -137 -1 -4 -2 0
140 137 -1 0
140 -137 1 0
-140 137 1 0
-140 -137 -1 0
139 4 -2 0
139 -4 2 0
-139 4 2 0
-139 -4 -2 0
-140 0
-137 0
-139 0
-134 0
-136 0
-131 0
-133 0
-128 0
-130 0
-125 0
-127 0
-122 0
-124 0
-119 0
-121 0
-116 0
-118 0
-113 0
-115 0
-110 0
-112 0
-107 0
-109 0
-104 0
-106 0
-101 0
-103 0
-98 0
-100 0
-95 0
-97 0
-92 0
-94 0
-89 0
-91 0
-86 0
-88 0
-83 0
-85 0
-80 0
-82 0
-77 0
-79 0
-74 0
-76 0
-71 0
-73 0
-68 0
-70 0
-65 0
-67 0
-58 0
-64 0
